(set-logic QF_UF)
(declare-fun A0 () Bool)
(declare-fun A1 () Bool)
(declare-fun A2 () Bool)
(declare-fun A3 () Bool)
(declare-fun A4 () Bool)
(declare-fun A5 () Bool)
(declare-fun A6 () Bool)
(declare-fun A7 () Bool)
(declare-fun A8 () Bool)
(declare-fun A9 () Bool)
(declare-fun A10 () Bool)
(declare-fun A11 () Bool)
(declare-fun A12 () Bool)
(declare-fun A13 () Bool)
(declare-fun A14 () Bool)
(declare-fun A15 () Bool)
(declare-fun A16 () Bool)
(declare-fun A17 () Bool)
(declare-fun A18 () Bool)
(declare-fun A19 () Bool)
(declare-fun A20 () Bool)
(declare-fun A21 () Bool)
(declare-fun A22 () Bool)
(declare-fun A23 () Bool)
(declare-fun A24 () Bool)
(assert (let ((.def_0 (or A22 A8))) (let ((.def_1 (not A4))) (let ((.def_2 (not A17))) (let ((.def_3 (or .def_2 .def_1))) (let ((.def_4 (and .def_3 .def_0))) (let ((.def_5 (not A3))) (let ((.def_6 (and A7 .def_5))) (let ((.def_7 (or A15 A1))) (let ((.def_8 (not .def_7))) (let ((.def_9 (and .def_8 .def_6))) (let ((.def_10 (or .def_9 .def_4))) (let ((.def_11 (not .def_10))) (let ((.def_12 (and A1 A24))) (let ((.def_13 (not .def_12))) (let ((.def_14 (not A1))) (let ((.def_15 (= A13 .def_14))) (let ((.def_16 (not .def_15))) (let ((.def_17 (and .def_16 .def_13))) (let ((.def_18 (not .def_17))) (let ((.def_19 (not A5))) (let ((.def_20 (and A17 .def_19))) (let ((.def_21 (not .def_20))) (let ((.def_22 (not A7))) (let ((.def_23 (or A4 .def_22))) (let ((.def_24 (not .def_23))) (let ((.def_25 (and .def_24 .def_21))) (let ((.def_26 (and .def_25 .def_18))) (let ((.def_27 (or .def_26 .def_11))) (let ((.def_28 (not .def_27))) (let ((.def_29 (or A13 A15))) (let ((.def_30 (not A21))) (let ((.def_31 (= .def_30 .def_14))) (let ((.def_32 (and .def_31 .def_29))) (let ((.def_33 (not .def_32))) (let ((.def_34 (not A24))) (let ((.def_35 (or .def_34 .def_1))) (let ((.def_36 (not .def_35))) (let ((.def_37 (and A22 A9))) (let ((.def_38 (not .def_37))) (let ((.def_39 (or .def_38 .def_36))) (let ((.def_40 (and .def_39 .def_33))) (let ((.def_41 (or A19 .def_1))) (let ((.def_42 (not .def_41))) (let ((.def_43 (and A5 A9))) (let ((.def_44 (or .def_43 .def_42))) (let ((.def_45 (not .def_44))) (let ((.def_46 (not A8))) (let ((.def_47 (or .def_46 A3))) (let ((.def_48 (not A16))) (let ((.def_49 (or .def_48 A23))) (let ((.def_50 (and .def_49 .def_47))) (let ((.def_51 (not .def_50))) (let ((.def_52 (or .def_51 .def_45))) (let ((.def_53 (or .def_52 .def_40))) (let ((.def_54 (or .def_53 .def_28))) (let ((.def_55 (not .def_54))) (let ((.def_56 (or .def_46 .def_34))) (let ((.def_57 (or A14 A7))) (let ((.def_58 (not .def_57))) (let ((.def_59 (= .def_58 .def_56))) (let ((.def_60 (and A14 A13))) (let ((.def_61 (not .def_60))) (let ((.def_62 (not A14))) (let ((.def_63 (and .def_62 A9))) (let ((.def_64 (or .def_63 .def_61))) (let ((.def_65 (not .def_64))) (let ((.def_66 (and .def_65 .def_59))) (let ((.def_67 (not .def_66))) (let ((.def_68 (and A4 A11))) (let ((.def_69 (or A24 A17))) (let ((.def_70 (or .def_69 .def_68))) (let ((.def_71 (not .def_70))) (let ((.def_72 (not A10))) (let ((.def_73 (and A18 .def_72))) (let ((.def_74 (not .def_73))) (let ((.def_75 (not A6))) (let ((.def_76 (and A9 .def_75))) (let ((.def_77 (not .def_76))) (let ((.def_78 (or .def_77 .def_74))) (let ((.def_79 (not .def_78))) (let ((.def_80 (or .def_79 .def_71))) (let ((.def_81 (and .def_80 .def_67))) (let ((.def_82 (not .def_81))) (let ((.def_83 (and .def_48 A2))) (let ((.def_84 (or A8 A21))) (let ((.def_85 (not .def_84))) (let ((.def_86 (and .def_85 .def_83))) (let ((.def_87 (not .def_86))) (let ((.def_88 (and .def_75 A17))) (let ((.def_89 (not .def_88))) (let ((.def_90 (not A15))) (let ((.def_91 (and .def_19 .def_90))) (let ((.def_92 (and .def_91 .def_89))) (let ((.def_93 (or .def_92 .def_87))) (let ((.def_94 (and .def_46 A7))) (let ((.def_95 (not .def_94))) (let ((.def_96 (not A9))) (let ((.def_97 (and A7 .def_96))) (let ((.def_98 (or .def_97 .def_95))) (let ((.def_99 (not A19))) (let ((.def_100 (not A13))) (let ((.def_101 (or .def_100 .def_99))) (let ((.def_102 (or .def_46 .def_30))) (let ((.def_103 (= .def_102 .def_101))) (let ((.def_104 (not .def_103))) (let ((.def_105 (= .def_104 .def_98))) (let ((.def_106 (or .def_105 .def_93))) (let ((.def_107 (not .def_106))) (let ((.def_108 (or .def_107 .def_82))) (let ((.def_109 (not .def_108))) (let ((.def_110 (and .def_109 .def_55))) (let ((.def_111 (not .def_110))) (let ((.def_112 (and A16 A24))) (let ((.def_113 (and A19 .def_62))) (let ((.def_114 (not .def_113))) (let ((.def_115 (and .def_114 .def_112))) (let ((.def_116 (not .def_115))) (let ((.def_117 (and A5 A3))) (let ((.def_118 (not A2))) (let ((.def_119 (and .def_75 .def_118))) (let ((.def_120 (or .def_119 .def_117))) (let ((.def_121 (or .def_120 .def_116))) (let ((.def_122 (not .def_121))) (let ((.def_123 (and .def_5 A23))) (let ((.def_124 (not .def_123))) (let ((.def_125 (and .def_34 A18))) (let ((.def_126 (or .def_125 .def_124))) (let ((.def_127 (or .def_30 A1))) (let ((.def_128 (or .def_22 A5))) (let ((.def_129 (and .def_128 .def_127))) (let ((.def_130 (not .def_129))) (let ((.def_131 (and .def_130 .def_126))) (let ((.def_132 (not .def_131))) (let ((.def_133 (and .def_132 .def_122))) (let ((.def_134 (not .def_133))) (let ((.def_135 (not A11))) (let ((.def_136 (or .def_22 .def_135))) (let ((.def_137 (not .def_136))) (let ((.def_138 (and A16 A22))) (let ((.def_139 (not .def_138))) (let ((.def_140 (or .def_139 .def_137))) (let ((.def_141 (or A6 A3))) (let ((.def_142 (not A18))) (let ((.def_143 (and .def_142 A0))) (let ((.def_144 (and .def_143 .def_141))) (let ((.def_145 (or .def_144 .def_140))) (let ((.def_146 (not .def_145))) (let ((.def_147 (or A23 .def_96))) (let ((.def_148 (or .def_118 A15))) (let ((.def_149 (or .def_148 .def_147))) (let ((.def_150 (or A14 .def_142))) (let ((.def_151 (= .def_72 A12))) (let ((.def_152 (or .def_151 .def_150))) (let ((.def_153 (not .def_152))) (let ((.def_154 (and .def_153 .def_149))) (let ((.def_155 (not .def_154))) (let ((.def_156 (and .def_155 .def_146))) (let ((.def_157 (not .def_156))) (let ((.def_158 (or .def_157 .def_134))) (let ((.def_159 (not A0))) (let ((.def_160 (= .def_72 .def_159))) (let ((.def_161 (not .def_160))) (let ((.def_162 (and A14 .def_30))) (let ((.def_163 (or .def_162 .def_161))) (let ((.def_164 (and .def_75 A13))) (let ((.def_165 (not .def_164))) (let ((.def_166 (and .def_19 A12))) (let ((.def_167 (= .def_166 .def_165))) (let ((.def_168 (not .def_167))) (let ((.def_169 (or .def_168 .def_163))) (let ((.def_170 (or .def_75 .def_48))) (let ((.def_171 (or A1 .def_142))) (let ((.def_172 (or .def_171 .def_170))) (let ((.def_173 (= A24 A19))) (let ((.def_174 (not .def_173))) (let ((.def_175 (and .def_142 .def_46))) (let ((.def_176 (not .def_175))) (let ((.def_177 (and .def_176 .def_174))) (let ((.def_178 (and .def_177 .def_172))) (let ((.def_179 (not .def_178))) (let ((.def_180 (and .def_179 .def_169))) (let ((.def_181 (or A17 .def_48))) (let ((.def_182 (or A18 A10))) (let ((.def_183 (or .def_182 .def_181))) (let ((.def_184 (not .def_183))) (let ((.def_185 (and A15 .def_46))) (let ((.def_186 (not .def_185))) (let ((.def_187 (= .def_1 A23))) (let ((.def_188 (not .def_187))) (let ((.def_189 (or .def_188 .def_186))) (let ((.def_190 (not .def_189))) (let ((.def_191 (and .def_190 .def_184))) (let ((.def_192 (= A5 A6))) (let ((.def_193 (not .def_192))) (let ((.def_194 (or .def_2 .def_30))) (let ((.def_195 (or .def_194 .def_193))) (let ((.def_196 (not A23))) (let ((.def_197 (and .def_90 .def_196))) (let ((.def_198 (or .def_100 .def_75))) (let ((.def_199 (or .def_198 .def_197))) (let ((.def_200 (not .def_199))) (let ((.def_201 (or .def_200 .def_195))) (let ((.def_202 (and .def_201 .def_191))) (let ((.def_203 (not .def_202))) (let ((.def_204 (or .def_203 .def_180))) (let ((.def_205 (or .def_204 .def_158))) (let ((.def_206 (or .def_205 .def_111))) (let ((.def_207 (and A3 .def_2))) (let ((.def_208 (not .def_207))) (let ((.def_209 (or A18 .def_159))) (let ((.def_210 (or .def_209 .def_208))) (let ((.def_211 (or A0 .def_90))) (let ((.def_212 (not .def_211))) (let ((.def_213 (and .def_96 A7))) (let ((.def_214 (not .def_213))) (let ((.def_215 (or .def_214 .def_212))) (let ((.def_216 (not .def_215))) (let ((.def_217 (and .def_216 .def_210))) (let ((.def_218 (= .def_2 A23))) (let ((.def_219 (not .def_218))) (let ((.def_220 (not A20))) (let ((.def_221 (not A12))) (let ((.def_222 (or .def_221 .def_220))) (let ((.def_223 (and .def_222 .def_219))) (let ((.def_224 (or .def_196 .def_62))) (let ((.def_225 (not A22))) (let ((.def_226 (or .def_142 .def_225))) (let ((.def_227 (not .def_226))) (let ((.def_228 (or .def_227 .def_224))) (let ((.def_229 (or .def_228 .def_223))) (let ((.def_230 (not .def_229))) (let ((.def_231 (= .def_230 .def_217))) (let ((.def_232 (or .def_99 .def_62))) (let ((.def_233 (not .def_232))) (let ((.def_234 (or .def_118 A12))) (let ((.def_235 (not .def_234))) (let ((.def_236 (and .def_235 .def_233))) (let ((.def_237 (not .def_236))) (let ((.def_238 (or A14 .def_34))) (let ((.def_239 (not .def_238))) (let ((.def_240 (and A8 .def_1))) (let ((.def_241 (not .def_240))) (let ((.def_242 (or .def_241 .def_239))) (let ((.def_243 (and .def_242 .def_237))) (let ((.def_244 (= A20 .def_220))) (let ((.def_245 (and A5 A6))) (let ((.def_246 (or .def_245 .def_244))) (let ((.def_247 (and A22 A1))) (let ((.def_248 (not .def_247))) (let ((.def_249 (or A3 .def_48))) (let ((.def_250 (or .def_249 .def_248))) (let ((.def_251 (or .def_250 .def_246))) (let ((.def_252 (not .def_251))) (let ((.def_253 (or .def_252 .def_243))) (let ((.def_254 (not .def_253))) (let ((.def_255 (and .def_254 .def_231))) (let ((.def_256 (or A4 A18))) (let ((.def_257 (or A23 A15))) (let ((.def_258 (or .def_257 .def_256))) (let ((.def_259 (not .def_258))) (let ((.def_260 (or A24 .def_221))) (let ((.def_261 (or .def_75 A7))) (let ((.def_262 (not .def_261))) (let ((.def_263 (or .def_262 .def_260))) (let ((.def_264 (not .def_263))) (let ((.def_265 (and .def_264 .def_259))) (let ((.def_266 (not .def_265))) (let ((.def_267 (and A9 A1))) (let ((.def_268 (not .def_267))) (let ((.def_269 (and A8 .def_90))) (let ((.def_270 (and .def_269 .def_268))) (let ((.def_271 (or .def_14 A19))) (let ((.def_272 (not .def_271))) (let ((.def_273 (= .def_96 .def_5))) (let ((.def_274 (not .def_273))) (let ((.def_275 (or .def_274 .def_272))) (let ((.def_276 (and .def_275 .def_270))) (let ((.def_277 (not .def_276))) (let ((.def_278 (and .def_277 .def_266))) (let ((.def_279 (not .def_278))) (let ((.def_280 (or A20 .def_1))) (let ((.def_281 (not .def_280))) (let ((.def_282 (and .def_135 A1))) (let ((.def_283 (not .def_282))) (let ((.def_284 (and .def_283 .def_281))) (let ((.def_285 (not .def_284))) (let ((.def_286 (= A12 .def_48))) (let ((.def_287 (and A17 A8))) (let ((.def_288 (and .def_287 .def_286))) (let ((.def_289 (or .def_288 .def_285))) (let ((.def_290 (not .def_289))) (let ((.def_291 (or A21 A1))) (let ((.def_292 (or .def_96 .def_118))) (let ((.def_293 (not .def_292))) (let ((.def_294 (or .def_293 .def_291))) (let ((.def_295 (not .def_294))) (let ((.def_296 (and A4 .def_96))) (let ((.def_297 (not .def_296))) (let ((.def_298 (or .def_225 A2))) (let ((.def_299 (and .def_298 .def_297))) (let ((.def_300 (not .def_299))) (let ((.def_301 (or .def_300 .def_295))) (let ((.def_302 (not .def_301))) (let ((.def_303 (= .def_302 .def_290))) (let ((.def_304 (and .def_303 .def_279))) (let ((.def_305 (not .def_304))) (let ((.def_306 (and .def_305 .def_255))) (let ((.def_307 (and .def_142 A7))) (let ((.def_308 (and .def_46 A0))) (let ((.def_309 (not .def_308))) (let ((.def_310 (and .def_309 .def_307))) (let ((.def_311 (not .def_310))) (let ((.def_312 (and A11 A22))) (let ((.def_313 (and A12 A18))) (let ((.def_314 (not .def_313))) (let ((.def_315 (and .def_314 .def_312))) (let ((.def_316 (and .def_315 .def_311))) (let ((.def_317 (not .def_316))) (let ((.def_318 (or A7 A23))) (let ((.def_319 (and .def_90 .def_14))) (let ((.def_320 (and .def_319 .def_318))) (let ((.def_321 (not .def_320))) (let ((.def_322 (= .def_62 A21))) (let ((.def_323 (or .def_96 A15))) (let ((.def_324 (not .def_323))) (let ((.def_325 (= .def_324 .def_322))) (let ((.def_326 (or .def_325 .def_321))) (let ((.def_327 (or .def_326 .def_317))) (let ((.def_328 (not .def_327))) (let ((.def_329 (and A24 A11))) (let ((.def_330 (not .def_329))) (let ((.def_331 (or .def_100 A23))) (let ((.def_332 (not .def_331))) (let ((.def_333 (and .def_332 .def_330))) (let ((.def_334 (not .def_333))) (let ((.def_335 (and .def_5 .def_225))) (let ((.def_336 (and .def_72 A3))) (let ((.def_337 (not .def_336))) (let ((.def_338 (or .def_337 .def_335))) (let ((.def_339 (or .def_338 .def_334))) (let ((.def_340 (and .def_100 .def_118))) (let ((.def_341 (or .def_196 .def_135))) (let ((.def_342 (not .def_341))) (let ((.def_343 (or .def_342 .def_340))) (let ((.def_344 (or .def_72 A22))) (let ((.def_345 (not .def_344))) (let ((.def_346 (or .def_159 A15))) (let ((.def_347 (not .def_346))) (let ((.def_348 (or .def_347 .def_345))) (let ((.def_349 (= .def_348 .def_343))) (let ((.def_350 (or .def_349 .def_339))) (let ((.def_351 (and .def_350 .def_328))) (let ((.def_352 (not .def_351))) (let ((.def_353 (and A21 A22))) (let ((.def_354 (and A10 A23))) (let ((.def_355 (not .def_354))) (let ((.def_356 (and .def_355 .def_353))) (let ((.def_357 (not .def_356))) (let ((.def_358 (or A14 .def_90))) (let ((.def_359 (= A8 .def_135))) (let ((.def_360 (not .def_359))) (let ((.def_361 (or .def_360 .def_358))) (let ((.def_362 (not .def_361))) (let ((.def_363 (or .def_362 .def_357))) (let ((.def_364 (= .def_75 .def_118))) (let ((.def_365 (not .def_364))) (let ((.def_366 (or A19 .def_225))) (let ((.def_367 (not .def_366))) (let ((.def_368 (or .def_367 .def_365))) (let ((.def_369 (not .def_368))) (let ((.def_370 (and A5 .def_46))) (let ((.def_371 (not .def_370))) (let ((.def_372 (or A6 A11))) (let ((.def_373 (or .def_372 .def_371))) (let ((.def_374 (not .def_373))) (let ((.def_375 (and .def_374 .def_369))) (let ((.def_376 (not .def_375))) (let ((.def_377 (or .def_376 .def_363))) (let ((.def_378 (= A22 .def_34))) (let ((.def_379 (or .def_2 A12))) (let ((.def_380 (and .def_379 .def_378))) (let ((.def_381 (not .def_380))) (let ((.def_382 (or .def_100 .def_48))) (let ((.def_383 (not .def_382))) (let ((.def_384 (or A11 A8))) (let ((.def_385 (not .def_384))) (let ((.def_386 (and .def_385 .def_383))) (let ((.def_387 (not .def_386))) (let ((.def_388 (and .def_387 .def_381))) (let ((.def_389 (and A6 A4))) (let ((.def_390 (not .def_389))) (let ((.def_391 (or A11 A16))) (let ((.def_392 (and .def_391 .def_390))) (let ((.def_393 (not .def_392))) (let ((.def_394 (or A3 .def_5))) (let ((.def_395 (not .def_394))) (let ((.def_396 (or .def_1 .def_220))) (let ((.def_397 (and .def_396 .def_395))) (let ((.def_398 (not .def_397))) (let ((.def_399 (and .def_398 .def_393))) (let ((.def_400 (and .def_399 .def_388))) (let ((.def_401 (not .def_400))) (let ((.def_402 (or .def_401 .def_377))) (let ((.def_403 (not .def_402))) (let ((.def_404 (or .def_403 .def_352))) (let ((.def_405 (not .def_404))) (let ((.def_406 (and .def_405 .def_306))) (let ((.def_407 (not .def_406))) (let ((.def_408 (or .def_407 .def_206))) .def_408))))))))))))))))))))))))))))))))))))))))))))))))))))))))))))))))))))))))))))))))))))))))))))))))))))))))))))))))))))))))))))))))))))))))))))))))))))))))))))))))))))))))))))))))))))))))))))))))))))))))))))))))))))))))))))))))))))))))))))))))))))))))))))))))))))))))))))))))))))))))))))))))))))))))))))))))))))))))))))))))))))))))))))))))))))))))))))))))))))))))))))))))))))))))))))))))))))))))))))))))))))))))))
(check-sat)
